NAME : amz0496.3173050_171550.tour
COMMENT : Cost = 3173050_171550
COMMENT : Found by LKH-AMZ [Keld Helsgaun] Sun May 11 12:32:34 2025
COMMENT : TW viol.: 0 #: 0
TYPE : TOUR
DIMENSION : 148
TOUR_SECTION
32
110
34
27
19
52
147
103
131
57
92
108
95
29
143
122
113
45
36
25
59
134
21
50
48
61
136
81
93
6
85
67
53
9
17
14
96
94
63
73
22
47
33
105
101
64
28
7
125
70
65
24
121
98
13
8
40
114
104
31
119
78
62
38
77
56
102
140
138
71
66
10
97
115
41
20
133
11
2
130
118
68
100
35
69
5
4
146
107
124
145
132
117
129
80
75
74
15
54
135
60
90
82
127
16
58
142
99
3
128
139
1
39
37
44
30
87
137
112
46
106
111
89
23
12
18
91
55
120
42
126
86
76
79
26
116
49
83
123
43
88
141
148
109
84
144
51
72
-1
EOF
